p cnf 200 1110
-101 -31 0
-101 11 0
-101 -36 0
-101 29 0
-101 42 0
-101 28 0
-101 -13 0
-101 -71 0
-101 62 0
-101 -89 0
101 31 -11 36 -29 -42 -28 13 71 -62 89 0
-102 -22 0
-102 -17 0
-102 57 0
-102 79 0
-102 68 0
-102 66 0
-102 65 0
-102 29 0
-102 -52 0
-102 85 0
102 22 17 -57 -79 -68 -66 -65 -29 52 -85 0
-103 -8 0
-103 42 0
-103 22 0
-103 -58 0
-103 10 0
-103 -51 0
-103 -37 0
-103 80 0
-103 -36 0
-103 60 0
103 8 -42 -22 58 -10 51 37 -80 36 -60 0
-104 -67 0
-104 -75 0
-104 76 0
-104 85 0
-104 79 0
-104 -32 0
-104 -4 0
-104 39 0
-104 57 0
-104 -70 0
104 67 75 -76 -85 -79 32 4 -39 -57 70 0
-105 -10 0
-105 38 0
-105 42 0
-105 -5 0
-105 6 0
-105 9 0
-105 -58 0
-105 95 0
-105 -82 0
-105 -83 0
105 10 -38 -42 5 -6 -9 58 -95 82 83 0
-106 -75 0
-106 -33 0
-106 -2 0
-106 18 0
-106 -76 0
-106 -7 0
-106 86 0
-106 52 0
-106 -17 0
-106 -25 0
106 75 33 2 -18 76 7 -86 -52 17 25 0
-107 -78 0
-107 24 0
-107 20 0
-107 26 0
-107 80 0
-107 -67 0
-107 42 0
-107 13 0
-107 -16 0
-107 53 0
107 78 -24 -20 -26 -80 67 -42 -13 16 -53 0
-108 33 0
-108 -90 0
-108 73 0
-108 18 0
-108 22 0
-108 -19 0
-108 30 0
-108 -31 0
-108 100 0
-108 57 0
108 -33 90 -73 -18 -22 19 -30 31 -100 -57 0
-109 97 0
-109 -73 0
-109 -54 0
-109 10 0
-109 28 0
-109 -66 0
-109 -79 0
-109 90 0
-109 56 0
-109 21 0
109 -97 73 54 -10 -28 66 79 -90 -56 -21 0
-110 -6 0
-110 96 0
-110 -79 0
-110 48 0
-110 -57 0
-110 -11 0
-110 -23 0
-110 -84 0
-110 86 0
-110 -31 0
110 6 -96 79 -48 57 11 23 84 -86 31 0
101 102 103 104 105 106 107 108 109 110 0
-111 74 0
-111 88 0
-111 38 0
-111 5 0
-111 -41 0
-111 81 0
-111 -44 0
-111 89 0
-111 12 0
-111 -15 0
111 -74 -88 -38 -5 41 -81 44 -89 -12 15 0
-112 -71 0
-112 -85 0
-112 -13 0
-112 80 0
-112 -2 0
-112 58 0
-112 95 0
-112 63 0
-112 -5 0
-112 4 0
112 71 85 13 -80 2 -58 -95 -63 5 -4 0
-113 41 0
-113 -14 0
-113 -33 0
-113 -82 0
-113 56 0
-113 15 0
-113 -43 0
-113 68 0
-113 -75 0
-113 -69 0
113 -41 14 33 82 -56 -15 43 -68 75 69 0
-114 -11 0
-114 -64 0
-114 -22 0
-114 -10 0
-114 14 0
-114 -32 0
-114 -82 0
-114 87 0
-114 -61 0
-114 28 0
114 11 64 22 10 -14 32 82 -87 61 -28 0
-115 -84 0
-115 89 0
-115 -85 0
-115 30 0
-115 -63 0
-115 -55 0
-115 -59 0
-115 8 0
-115 12 0
-115 -87 0
115 84 -89 85 -30 63 55 59 -8 -12 87 0
-116 31 0
-116 17 0
-116 -22 0
-116 48 0
-116 43 0
-116 -13 0
-116 65 0
-116 -27 0
-116 -19 0
-116 -24 0
116 -31 -17 22 -48 -43 13 -65 27 19 24 0
-117 92 0
-117 100 0
-117 4 0
-117 -7 0
-117 -53 0
-117 63 0
-117 38 0
-117 32 0
-117 13 0
-117 5 0
117 -92 -100 -4 7 53 -63 -38 -32 -13 -5 0
-118 8 0
-118 -25 0
-118 -15 0
-118 66 0
-118 92 0
-118 9 0
-118 19 0
-118 -34 0
-118 89 0
-118 -7 0
118 -8 25 15 -66 -92 -9 -19 34 -89 7 0
-119 -5 0
-119 58 0
-119 46 0
-119 -84 0
-119 32 0
-119 -14 0
-119 -50 0
-119 -30 0
-119 -73 0
-119 18 0
119 5 -58 -46 84 -32 14 50 30 73 -18 0
-120 60 0
-120 -29 0
-120 72 0
-120 -39 0
-120 82 0
-120 96 0
-120 -55 0
-120 -88 0
-120 -83 0
-120 -50 0
120 -60 29 -72 39 -82 -96 55 88 83 50 0
111 112 113 114 115 116 117 118 119 120 0
-121 72 0
-121 -100 0
-121 -40 0
-121 65 0
-121 27 0
-121 -44 0
-121 -84 0
-121 -58 0
-121 -92 0
-121 13 0
121 -72 100 40 -65 -27 44 84 58 92 -13 0
-122 -5 0
-122 -91 0
-122 -78 0
-122 15 0
-122 70 0
-122 -80 0
-122 -94 0
-122 -87 0
-122 -77 0
-122 68 0
122 5 91 78 -15 -70 80 94 87 77 -68 0
-123 19 0
-123 -36 0
-123 -13 0
-123 -55 0
-123 -17 0
-123 93 0
-123 30 0
-123 -39 0
-123 -88 0
-123 -7 0
123 -19 36 13 55 17 -93 -30 39 88 7 0
-124 -14 0
-124 -76 0
-124 92 0
-124 -49 0
-124 15 0
-124 -53 0
-124 68 0
-124 58 0
-124 -30 0
-124 -59 0
124 14 76 -92 49 -15 53 -68 -58 30 59 0
-125 -28 0
-125 -14 0
-125 -91 0
-125 34 0
-125 72 0
-125 -38 0
-125 -27 0
-125 45 0
-125 9 0
-125 -95 0
125 28 14 91 -34 -72 38 27 -45 -9 95 0
-126 -32 0
-126 -41 0
-126 -45 0
-126 -4 0
-126 49 0
-126 -98 0
-126 57 0
-126 78 0
-126 17 0
-126 -35 0
126 32 41 45 4 -49 98 -57 -78 -17 35 0
-127 96 0
-127 85 0
-127 -54 0
-127 92 0
-127 -74 0
-127 -21 0
-127 -39 0
-127 95 0
-127 -67 0
-127 43 0
127 -96 -85 54 -92 74 21 39 -95 67 -43 0
-128 -40 0
-128 89 0
-128 23 0
-128 39 0
-128 -74 0
-128 -87 0
-128 -33 0
-128 98 0
-128 -14 0
-128 67 0
128 40 -89 -23 -39 74 87 33 -98 14 -67 0
-129 -67 0
-129 87 0
-129 8 0
-129 -11 0
-129 -73 0
-129 -75 0
-129 2 0
-129 -35 0
-129 27 0
-129 -55 0
129 67 -87 -8 11 73 75 -2 35 -27 55 0
-130 -60 0
-130 100 0
-130 2 0
-130 50 0
-130 3 0
-130 -69 0
-130 23 0
-130 -1 0
-130 -28 0
-130 10 0
130 60 -100 -2 -50 -3 69 -23 1 28 -10 0
121 122 123 124 125 126 127 128 129 130 0
-131 76 0
-131 9 0
-131 -13 0
-131 -39 0
-131 54 0
-131 74 0
-131 97 0
-131 -70 0
-131 95 0
-131 41 0
131 -76 -9 13 39 -54 -74 -97 70 -95 -41 0
-132 62 0
-132 3 0
-132 68 0
-132 18 0
-132 85 0
-132 -59 0
-132 55 0
-132 90 0
-132 -24 0
-132 -32 0
132 -62 -3 -68 -18 -85 59 -55 -90 24 32 0
-133 50 0
-133 88 0
-133 99 0
-133 43 0
-133 6 0
-133 97 0
-133 66 0
-133 34 0
-133 38 0
-133 41 0
133 -50 -88 -99 -43 -6 -97 -66 -34 -38 -41 0
-134 95 0
-134 72 0
-134 -83 0
-134 17 0
-134 -19 0
-134 -66 0
-134 68 0
-134 -97 0
-134 2 0
-134 74 0
134 -95 -72 83 -17 19 66 -68 97 -2 -74 0
-135 77 0
-135 37 0
-135 81 0
-135 -99 0
-135 49 0
-135 -93 0
-135 -8 0
-135 -1 0
-135 -21 0
-135 -86 0
135 -77 -37 -81 99 -49 93 8 1 21 86 0
-136 -2 0
-136 27 0
-136 84 0
-136 24 0
-136 -42 0
-136 74 0
-136 -99 0
-136 52 0
-136 -73 0
-136 -98 0
136 2 -27 -84 -24 42 -74 99 -52 73 98 0
-137 68 0
-137 82 0
-137 -44 0
-137 45 0
-137 89 0
-137 93 0
-137 73 0
-137 -41 0
-137 -52 0
-137 99 0
137 -68 -82 44 -45 -89 -93 -73 41 52 -99 0
-138 67 0
-138 71 0
-138 -49 0
-138 -80 0
-138 28 0
-138 88 0
-138 -73 0
-138 87 0
-138 -36 0
-138 93 0
138 -67 -71 49 80 -28 -88 73 -87 36 -93 0
-139 42 0
-139 -66 0
-139 68 0
-139 -92 0
-139 14 0
-139 -93 0
-139 89 0
-139 18 0
-139 -91 0
-139 7 0
139 -42 66 -68 92 -14 93 -89 -18 91 -7 0
-140 -77 0
-140 -24 0
-140 93 0
-140 66 0
-140 82 0
-140 84 0
-140 -86 0
-140 -97 0
-140 -52 0
-140 -43 0
140 77 24 -93 -66 -82 -84 86 97 52 43 0
131 132 133 134 135 136 137 138 139 140 0
-141 -50 0
-141 96 0
-141 -24 0
-141 -65 0
-141 60 0
-141 77 0
-141 -25 0
-141 36 0
-141 -3 0
-141 54 0
141 50 -96 24 65 -60 -77 25 -36 3 -54 0
-142 33 0
-142 -71 0
-142 44 0
-142 -29 0
-142 -59 0
-142 9 0
-142 13 0
-142 -41 0
-142 -97 0
-142 -66 0
142 -33 71 -44 29 59 -9 -13 41 97 66 0
-143 -40 0
-143 -18 0
-143 -47 0
-143 17 0
-143 23 0
-143 -6 0
-143 45 0
-143 -22 0
-143 72 0
-143 -44 0
143 40 18 47 -17 -23 6 -45 22 -72 44 0
-144 22 0
-144 -95 0
-144 -96 0
-144 61 0
-144 69 0
-144 -85 0
-144 46 0
-144 53 0
-144 -15 0
-144 -62 0
144 -22 95 96 -61 -69 85 -46 -53 15 62 0
-145 -70 0
-145 -96 0
-145 10 0
-145 -25 0
-145 -83 0
-145 -75 0
-145 -13 0
-145 27 0
-145 -39 0
-145 54 0
145 70 96 -10 25 83 75 13 -27 39 -54 0
-146 87 0
-146 -2 0
-146 -99 0
-146 28 0
-146 58 0
-146 86 0
-146 70 0
-146 -92 0
-146 10 0
-146 41 0
146 -87 2 99 -28 -58 -86 -70 92 -10 -41 0
-147 -33 0
-147 12 0
-147 -86 0
-147 -76 0
-147 -93 0
-147 -10 0
-147 19 0
-147 30 0
-147 -38 0
-147 1 0
147 33 -12 86 76 93 10 -19 -30 38 -1 0
-148 17 0
-148 -5 0
-148 -4 0
-148 30 0
-148 -79 0
-148 -82 0
-148 37 0
-148 93 0
-148 51 0
-148 -91 0
148 -17 5 4 -30 79 82 -37 -93 -51 91 0
-149 -95 0
-149 -90 0
-149 -69 0
-149 -92 0
-149 -53 0
-149 -42 0
-149 -3 0
-149 40 0
-149 -47 0
-149 50 0
149 95 90 69 92 53 42 3 -40 47 -50 0
-150 -19 0
-150 -70 0
-150 8 0
-150 -28 0
-150 50 0
-150 -63 0
-150 85 0
-150 6 0
-150 1 0
-150 -64 0
150 19 70 -8 28 -50 63 -85 -6 -1 64 0
141 142 143 144 145 146 147 148 149 150 0
-151 -23 0
-151 98 0
-151 90 0
-151 28 0
-151 -58 0
-151 -95 0
-151 29 0
-151 -76 0
-151 22 0
-151 75 0
151 23 -98 -90 -28 58 95 -29 76 -22 -75 0
-152 92 0
-152 18 0
-152 -55 0
-152 93 0
-152 86 0
-152 -81 0
-152 26 0
-152 60 0
-152 -91 0
-152 45 0
152 -92 -18 55 -93 -86 81 -26 -60 91 -45 0
-153 -57 0
-153 5 0
-153 9 0
-153 -14 0
-153 22 0
-153 -72 0
-153 31 0
-153 -46 0
-153 91 0
-153 -74 0
153 57 -5 -9 14 -22 72 -31 46 -91 74 0
-154 12 0
-154 -97 0
-154 56 0
-154 13 0
-154 -6 0
-154 18 0
-154 34 0
-154 -29 0
-154 69 0
-154 60 0
154 -12 97 -56 -13 6 -18 -34 29 -69 -60 0
-155 -52 0
-155 -27 0
-155 30 0
-155 -51 0
-155 -13 0
-155 -46 0
-155 15 0
-155 70 0
-155 -50 0
-155 -63 0
155 52 27 -30 51 13 46 -15 -70 50 63 0
-156 -15 0
-156 -24 0
-156 -31 0
-156 62 0
-156 -12 0
-156 73 0
-156 -19 0
-156 60 0
-156 86 0
-156 28 0
156 15 24 31 -62 12 -73 19 -60 -86 -28 0
-157 90 0
-157 96 0
-157 -78 0
-157 -56 0
-157 80 0
-157 -5 0
-157 10 0
-157 -85 0
-157 69 0
-157 88 0
157 -90 -96 78 56 -80 5 -10 85 -69 -88 0
-158 18 0
-158 -54 0
-158 48 0
-158 -7 0
-158 38 0
-158 -46 0
-158 85 0
-158 34 0
-158 39 0
-158 16 0
158 -18 54 -48 7 -38 46 -85 -34 -39 -16 0
-159 -57 0
-159 -6 0
-159 -84 0
-159 80 0
-159 -63 0
-159 58 0
-159 -67 0
-159 -62 0
-159 51 0
-159 52 0
159 57 6 84 -80 63 -58 67 62 -51 -52 0
-160 -10 0
-160 40 0
-160 -64 0
-160 99 0
-160 26 0
-160 -98 0
-160 -86 0
-160 -23 0
-160 -43 0
-160 38 0
160 10 -40 64 -99 -26 98 86 23 43 -38 0
151 152 153 154 155 156 157 158 159 160 0
-161 78 0
-161 -22 0
-161 -95 0
-161 -16 0
-161 77 0
-161 -44 0
-161 8 0
-161 57 0
-161 10 0
-161 13 0
161 -78 22 95 16 -77 44 -8 -57 -10 -13 0
-162 10 0
-162 -97 0
-162 12 0
-162 -26 0
-162 -28 0
-162 99 0
-162 -1 0
-162 -27 0
-162 81 0
-162 -86 0
162 -10 97 -12 26 28 -99 1 27 -81 86 0
-163 99 0
-163 -28 0
-163 8 0
-163 42 0
-163 -58 0
-163 -2 0
-163 35 0
-163 -77 0
-163 -78 0
-163 -20 0
163 -99 28 -8 -42 58 2 -35 77 78 20 0
-164 -41 0
-164 -49 0
-164 -28 0
-164 -52 0
-164 -26 0
-164 -46 0
-164 78 0
-164 -13 0
-164 -43 0
-164 82 0
164 41 49 28 52 26 46 -78 13 43 -82 0
-165 45 0
-165 -32 0
-165 12 0
-165 42 0
-165 -79 0
-165 -93 0
-165 -56 0
-165 -60 0
-165 11 0
-165 -25 0
165 -45 32 -12 -42 79 93 56 60 -11 25 0
-166 48 0
-166 1 0
-166 93 0
-166 83 0
-166 -77 0
-166 33 0
-166 -56 0
-166 24 0
-166 -97 0
-166 31 0
166 -48 -1 -93 -83 77 -33 56 -24 97 -31 0
-167 83 0
-167 -29 0
-167 -35 0
-167 -68 0
-167 53 0
-167 21 0
-167 73 0
-167 14 0
-167 34 0
-167 85 0
167 -83 29 35 68 -53 -21 -73 -14 -34 -85 0
-168 -3 0
-168 -24 0
-168 42 0
-168 38 0
-168 79 0
-168 85 0
-168 17 0
-168 83 0
-168 -88 0
-168 -86 0
168 3 24 -42 -38 -79 -85 -17 -83 88 86 0
-169 39 0
-169 -62 0
-169 100 0
-169 49 0
-169 19 0
-169 -37 0
-169 16 0
-169 -98 0
-169 -89 0
-169 -26 0
169 -39 62 -100 -49 -19 37 -16 98 89 26 0
-170 72 0
-170 -39 0
-170 69 0
-170 65 0
-170 29 0
-170 25 0
-170 60 0
-170 -14 0
-170 73 0
-170 3 0
170 -72 39 -69 -65 -29 -25 -60 14 -73 -3 0
161 162 163 164 165 166 167 168 169 170 0
-171 -42 0
-171 22 0
-171 56 0
-171 -55 0
-171 -88 0
-171 38 0
-171 77 0
-171 -75 0
-171 98 0
-171 -12 0
171 42 -22 -56 55 88 -38 -77 75 -98 12 0
-172 100 0
-172 60 0
-172 -97 0
-172 42 0
-172 -98 0
-172 83 0
-172 88 0
-172 -47 0
-172 -55 0
-172 -21 0
172 -100 -60 97 -42 98 -83 -88 47 55 21 0
-173 -95 0
-173 -9 0
-173 -100 0
-173 16 0
-173 33 0
-173 -11 0
-173 1 0
-173 -93 0
-173 99 0
-173 -63 0
173 95 9 100 -16 -33 11 -1 93 -99 63 0
-174 -37 0
-174 -5 0
-174 12 0
-174 -19 0
-174 -67 0
-174 -21 0
-174 81 0
-174 -97 0
-174 -84 0
-174 56 0
174 37 5 -12 19 67 21 -81 97 84 -56 0
-175 -29 0
-175 28 0
-175 -53 0
-175 -49 0
-175 -7 0
-175 10 0
-175 -20 0
-175 -51 0
-175 -52 0
-175 50 0
175 29 -28 53 49 7 -10 20 51 52 -50 0
-176 -32 0
-176 15 0
-176 -23 0
-176 -100 0
-176 91 0
-176 -30 0
-176 33 0
-176 -50 0
-176 57 0
-176 -80 0
176 32 -15 23 100 -91 30 -33 50 -57 80 0
-177 81 0
-177 -59 0
-177 -31 0
-177 -26 0
-177 -30 0
-177 15 0
-177 10 0
-177 -5 0
-177 1 0
-177 -44 0
177 -81 59 31 26 30 -15 -10 5 -1 44 0
-178 -48 0
-178 18 0
-178 -29 0
-178 -40 0
-178 55 0
-178 -87 0
-178 -16 0
-178 98 0
-178 91 0
-178 -73 0
178 48 -18 29 40 -55 87 16 -98 -91 73 0
-179 -42 0
-179 36 0
-179 22 0
-179 6 0
-179 -86 0
-179 3 0
-179 -23 0
-179 -53 0
-179 -63 0
-179 -28 0
179 42 -36 -22 -6 86 -3 23 53 63 28 0
-180 65 0
-180 -70 0
-180 8 0
-180 94 0
-180 -58 0
-180 60 0
-180 62 0
-180 -43 0
-180 -15 0
-180 35 0
180 -65 70 -8 -94 58 -60 -62 43 15 -35 0
171 172 173 174 175 176 177 178 179 180 0
-181 30 0
-181 -40 0
-181 48 0
-181 -12 0
-181 45 0
-181 -27 0
-181 -36 0
-181 -59 0
-181 -5 0
-181 18 0
181 -30 40 -48 12 -45 27 36 59 5 -18 0
-182 99 0
-182 62 0
-182 -69 0
-182 -13 0
-182 -42 0
-182 35 0
-182 -19 0
-182 -29 0
-182 -33 0
-182 -15 0
182 -99 -62 69 13 42 -35 19 29 33 15 0
-183 64 0
-183 -97 0
-183 -54 0
-183 -12 0
-183 45 0
-183 23 0
-183 -61 0
-183 -9 0
-183 34 0
-183 87 0
183 -64 97 54 12 -45 -23 61 9 -34 -87 0
-184 -7 0
-184 27 0
-184 -23 0
-184 -17 0
-184 -37 0
-184 -80 0
-184 71 0
-184 -68 0
-184 -87 0
-184 -83 0
184 7 -27 23 17 37 80 -71 68 87 83 0
-185 7 0
-185 -39 0
-185 -23 0
-185 -9 0
-185 13 0
-185 48 0
-185 -57 0
-185 40 0
-185 31 0
-185 -33 0
185 -7 39 23 9 -13 -48 57 -40 -31 33 0
-186 -27 0
-186 -55 0
-186 -39 0
-186 56 0
-186 64 0
-186 -59 0
-186 6 0
-186 -60 0
-186 22 0
-186 -1 0
186 27 55 39 -56 -64 59 -6 60 -22 1 0
-187 3 0
-187 -20 0
-187 73 0
-187 -42 0
-187 -99 0
-187 -9 0
-187 27 0
-187 17 0
-187 48 0
-187 6 0
187 -3 20 -73 42 99 9 -27 -17 -48 -6 0
-188 -7 0
-188 9 0
-188 -72 0
-188 8 0
-188 84 0
-188 -33 0
-188 -48 0
-188 -11 0
-188 -29 0
-188 46 0
188 7 -9 72 -8 -84 33 48 11 29 -46 0
-189 -27 0
-189 -77 0
-189 -57 0
-189 -13 0
-189 -34 0
-189 19 0
-189 42 0
-189 -87 0
-189 98 0
-189 -45 0
189 27 77 57 13 34 -19 -42 87 -98 45 0
-190 -87 0
-190 -62 0
-190 51 0
-190 5 0
-190 75 0
-190 27 0
-190 74 0
-190 96 0
-190 9 0
-190 36 0
190 87 62 -51 -5 -75 -27 -74 -96 -9 -36 0
181 182 183 184 185 186 187 188 189 190 0
-191 15 0
-191 -51 0
-191 -52 0
-191 -32 0
-191 92 0
-191 -10 0
-191 -62 0
-191 -91 0
-191 27 0
-191 -8 0
191 -15 51 52 32 -92 10 62 91 -27 8 0
-192 91 0
-192 -61 0
-192 92 0
-192 -100 0
-192 -69 0
-192 -66 0
-192 -6 0
-192 -63 0
-192 88 0
-192 93 0
192 -91 61 -92 100 69 66 6 63 -88 -93 0
-193 14 0
-193 68 0
-193 -83 0
-193 -18 0
-193 -70 0
-193 -6 0
-193 -76 0
-193 -99 0
-193 100 0
-193 -31 0
193 -14 -68 83 18 70 6 76 99 -100 31 0
-194 -38 0
-194 89 0
-194 79 0
-194 13 0
-194 -4 0
-194 -62 0
-194 -70 0
-194 46 0
-194 57 0
-194 -90 0
194 38 -89 -79 -13 4 62 70 -46 -57 90 0
-195 25 0
-195 -88 0
-195 -75 0
-195 -24 0
-195 -93 0
-195 -99 0
-195 46 0
-195 3 0
-195 -33 0
-195 -60 0
195 -25 88 75 24 93 99 -46 -3 33 60 0
-196 -16 0
-196 75 0
-196 -4 0
-196 -22 0
-196 -48 0
-196 27 0
-196 -40 0
-196 -63 0
-196 57 0
-196 51 0
196 16 -75 4 22 48 -27 40 63 -57 -51 0
-197 -42 0
-197 17 0
-197 -82 0
-197 85 0
-197 5 0
-197 -22 0
-197 -64 0
-197 -41 0
-197 -10 0
-197 -89 0
197 42 -17 82 -85 -5 22 64 41 10 89 0
-198 13 0
-198 34 0
-198 -42 0
-198 5 0
-198 -33 0
-198 48 0
-198 -17 0
-198 67 0
-198 -24 0
-198 -22 0
198 -13 -34 42 -5 33 -48 17 -67 24 22 0
-199 -62 0
-199 -93 0
-199 1 0
-199 -3 0
-199 -2 0
-199 -15 0
-199 6 0
-199 -27 0
-199 32 0
-199 -55 0
199 62 93 -1 3 2 15 -6 27 -32 55 0
-200 -71 0
-200 -100 0
-200 75 0
-200 90 0
-200 42 0
-200 39 0
-200 5 0
-200 79 0
-200 65 0
-200 -82 0
200 71 100 -75 -90 -42 -39 -5 -79 -65 82 0
191 192 193 194 195 196 197 198 199 200 0
